myproject/instances/20nodes/rnd47_20.tsp
NAME : rnd47_20.tsp
TYPE : TSP
DIMENSION : 20
EDGE_WEIGHT_TYPE : EUC_2D
NODE_COORD_SECTION
1 173 820
2 573 890
3 140 671
4 747 102
5 799 265
6 387 548
7 718 901
8 8 169
9 518 501
10 187 680
11 317 650
12 757 983
13 548 724
14 290 662
15 485 146
16 950 866
17 225 606
18 576 670
19 630 855
20 568 217
