myproject/instances/20nodes/rnd47_20.opt.tour
NAME : rnd47_20.tsp.tsp.optbc.tour
TYPE : TOUR
DIMENSION : 20
TOUR_SECTION
1
10
14
11
6
9
13
18
2
19
7
12
16
5
4
20
15
8
17
3
-1